66266
0 0 0 0 1 0 1 0 0 0 1 0 0 1 0 0 1 1 1 0 0 0 0 1 1 0 0 0 1 1 
18 6 16 18 16 4 16 24 6 24 17 4 13 16 29 6 10 23 13 18 17 17 23 24 28 28 18 13 4 24 13 17 4 6 24 6 13 23 13 17 16 4 16 24 13 29 24 24 17 29 16 18 16 16 29 6 29 13 13 18 4 24 23 23 4 17 16 17 13 6 18 28 13 4 29 18 10 24 4 28 18 16 28 18 4 16 29 10 24 6 17 4 10 18 23 23 6 13 6 6 28 29 6 6 18 18 6 16 28 23 28 23 24 6 23 13 6 28 23 29 4 4 23 6 4 29 23 28 4 28 28 18 24 4 17 23 16 4 23 24 6 23 17 24 18 24 13 28 17 17 13 29 18 16 17 17 28 24 23 16 4 24 29 17 17 16 24 4 4 28 23 18 28 17 16 23 13 18 29 23 18 6 18 4 28 28 29 16 24 18 28 28 6 28 29 28 24 28 29 29 
